% Data for perfect square placement problem:
% http://www.hakank.org/minizinc/perfect_square_placement.mzn
% Data is originally from CSPLib:
% http://www.cs.st-andrews.ac.uk/~ianm/CSPLib/prob/prob009/results

% problem 197 
n = 603;
size = 25;
a = [7,11,12,14,21,25,32,40,52,56,60,67,68,81,91,92,132,144,149,163,177,191,196,235,263];

